(declare-const x0 Real)
(assert (<= 0.0 x0))
(declare-const x1 Real)
(assert (<= 0.0 x1))
(declare-const x2 Real)
(assert (<= 0.0 x2))
(declare-const x3 Real)
(assert (<= 0.0 x3))
(declare-const x4 Real)
(assert (<= 0.0 x4))
(declare-const x5 Real)
(assert (<= 0.0 x5))
(declare-const x6 Real)
(assert (<= 0.0 x6))
(declare-const x7 Real)
(assert (<= 0.0 x7))
(declare-const x8 Real)
(assert (<= 0.0 x8))
(declare-const x9 Real)
(assert (<= 0.0 x9))

(assert (<= 2.928968 (+ (* 1.0 x0) (* 0.500000 x1) (* 0.333333 x2) (* 0.250000 x3) (* 0.200000 x4) (* 0.166667 x5) (* 0.142857 x6) (* 0.125000 x7) (* 0.111111 x8) (* 0.100000 x9))))
(assert (<= 2.019877 (+ (* 0.500000 x0) (* 0.333333 x1) (* 0.250000 x2) (* 0.200000 x3) (* 0.166667 x4) (* 0.142857 x5) (* 0.125000 x6) (* 0.111111 x7) (* 0.100000 x8) (* 0.090909 x9))))
(assert (<= 1.603211 (+ (* 0.333333 x0) (* 0.250000 x1) (* 0.200000 x2) (* 0.166667 x3) (* 0.142857 x4) (* 0.125000 x5) (* 0.111111 x6) (* 0.100000 x7) (* 0.090909 x8) (* 0.083333 x9))))
(assert (<= 1.346800 (+ (* 0.250000 x0) (* 0.200000 x1) (* 0.166667 x2) (* 0.142857 x3) (* 0.125000 x4) (* 0.111111 x5) (* 0.100000 x6) (* 0.090909 x7) (* 0.083333 x8) (* 0.076923 x9))))
(assert (<= 1.168229 (+ (* 0.200000 x0) (* 0.166667 x1) (* 0.142857 x2) (* 0.125000 x3) (* 0.111111 x4) (* 0.100000 x5) (* 0.090909 x6) (* 0.083333 x7) (* 0.076923 x8) (* 0.071429 x9))))
(assert (<= 1.034896 (+ (* 0.166667 x0) (* 0.142857 x1) (* 0.125000 x2) (* 0.111111 x3) (* 0.100000 x4) (* 0.090909 x5) (* 0.083333 x6) (* 0.076923 x7) (* 0.071429 x8) (* 0.066667 x9))))
(assert (<= 0.930729 (+ (* 0.142857 x0) (* 0.125000 x1) (* 0.111111 x2) (* 0.100000 x3) (* 0.090909 x4) (* 0.083333 x5) (* 0.076923 x6) (* 0.071429 x7) (* 0.066667 x8) (* 0.062500 x9))))
(assert (<= 0.846695 (+ (* 0.125000 x0) (* 0.111111 x1) (* 0.100000 x2) (* 0.090909 x3) (* 0.083333 x4) (* 0.076923 x5) (* 0.071429 x6) (* 0.066667 x7) (* 0.062500 x8) (* 0.058824 x9))))
(assert (<= 0.777251 (+ (* 0.111111 x0) (* 0.100000 x1) (* 0.090909 x2) (* 0.083333 x3) (* 0.076923 x4) (* 0.071429 x5) (* 0.066667 x6) (* 0.062500 x7) (* 0.058824 x8) (* 0.055556 x9))))
(assert (<= 0.718771 (+ (* 0.100000 x0) (* 0.090909 x1) (* 0.083333 x2) (* 0.076923 x3) (* 0.071429 x4) (* 0.066667 x5) (* 0.062500 x6) (* 0.058824 x7) (* 0.055556 x8) (* 0.052632 x9))))

(minimize
	(+ (* 2.928968 x0) (* 2.019877 x1) (* 1.603211 x2) (* 1.346800 x3) (* 1.168229 x4) (* 1.034896 x5) (* 0.930729 x6) (* 0.846695 x7) (* 0.777251 x8) (* 0.718771 x9))
)
(check-sat)
(get-objectives)
(exit)

